100
1000
206
205
200
200
199
199
197
197
194
193
193
193
191
188
185
185
184
182
178
175
172
170
167
165
161
161
161
159
159
159
158
155
154
153
153
153
149
146
143
141
141
139
137
135
130
128
126
125
122
120
120
119
118
115
113
109
109
109
108
107
104
104
103
103
101
99
97
94
90
90
90
87
86
86
82
79
77
74
67
63
54
48
48
46
45
44
37
35
35
34
34
27
25
23
23
23
19
17
16
14
